
Gurobi 5.6.3 (linux64) logging started Mon Jul 28 20:08:52 2014


Gurobi 5.6.3 (linux64) logging started Mon Jul 28 20:11:14 2014


Gurobi 5.6.3 (linux64) logging started Mon Jul 28 20:12:10 2014


Gurobi 5.6.3 (linux64) logging started Tue Jul 29 10:29:18 2014


Gurobi 5.6.3 (linux64) logging started Tue Jul 29 10:30:26 2014


Gurobi 5.6.3 (linux64) logging started Tue Jul 29 10:30:46 2014


Gurobi 5.6.3 (linux64) logging started Tue Jul 29 10:32:05 2014


Gurobi 5.6.3 (linux64) logging started Tue Jul 29 10:32:28 2014


Gurobi 5.6.3 (linux64) logging started Tue Jul 29 10:35:02 2014


Gurobi 5.6.3 (linux64) logging started Tue Jul 29 10:39:43 2014


Gurobi 5.6.3 (linux64) logging started Tue Jul 29 10:39:59 2014


Gurobi 5.6.3 (linux64) logging started Tue Jul 29 10:49:40 2014


Gurobi 5.6.3 (linux64) logging started Tue Jul 29 10:50:04 2014


Gurobi 5.6.3 (linux64) logging started Tue Jul 29 10:50:27 2014


Gurobi 5.6.3 (linux64) logging started Tue Jul 29 10:52:12 2014


Gurobi 5.6.3 (linux64) logging started Tue Jul 29 10:52:49 2014


Gurobi 5.6.3 (linux64) logging started Tue Jul 29 11:02:14 2014


Gurobi 5.6.3 (linux64) logging started Tue Jul 29 11:03:37 2014


Gurobi 5.6.3 (linux64) logging started Tue Jul 29 11:03:53 2014


Gurobi 5.6.3 (linux64) logging started Tue Jul 29 11:04:12 2014


Gurobi 5.6.3 (linux64) logging started Tue Jul 29 11:04:50 2014


Gurobi 5.6.3 (linux64) logging started Tue Jul 29 11:05:48 2014


Gurobi 5.6.3 (linux64) logging started Tue Jul 29 11:06:02 2014


Gurobi 5.6.3 (linux64) logging started Tue Jul 29 11:07:53 2014


Gurobi 5.6.3 (linux64) logging started Tue Jul 29 11:24:40 2014


Gurobi 5.6.3 (linux64) logging started Tue Jul 29 11:25:13 2014


Gurobi 5.6.3 (linux64) logging started Tue Jul 29 11:26:02 2014


Gurobi 5.6.3 (linux64) logging started Tue Jul 29 11:27:39 2014


Gurobi 5.6.3 (linux64) logging started Tue Jul 29 11:28:11 2014


Gurobi 5.6.3 (linux64) logging started Tue Jul 29 11:28:24 2014


Gurobi 5.6.3 (linux64) logging started Tue Jul 29 11:29:13 2014


Gurobi 5.6.3 (linux64) logging started Tue Jul 29 11:33:00 2014


Gurobi 5.6.3 (linux64) logging started Tue Jul 29 11:36:19 2014


Gurobi 5.6.3 (linux64) logging started Tue Jul 29 11:38:13 2014


Gurobi 5.6.3 (linux64) logging started Tue Jul 29 11:40:37 2014


Gurobi 5.6.3 (linux64) logging started Tue Jul 29 11:48:00 2014


Gurobi 5.6.3 (linux64) logging started Tue Jul 29 12:15:37 2014


Gurobi 5.6.3 (linux64) logging started Tue Jul 29 12:20:13 2014


Gurobi 5.6.3 (linux64) logging started Tue Jul 29 12:21:49 2014


Gurobi 5.6.3 (linux64) logging started Tue Jul 29 12:23:47 2014


Gurobi 5.6.3 (linux64) logging started Tue Jul 29 12:26:26 2014


Gurobi 5.6.3 (linux64) logging started Tue Jul 29 12:26:49 2014


Gurobi 5.6.3 (linux64) logging started Tue Jul 29 12:28:44 2014


Gurobi 5.6.3 (linux64) logging started Tue Jul 29 12:30:22 2014


Gurobi 5.6.3 (linux64) logging started Tue Jul 29 12:34:31 2014


Gurobi 5.6.3 (linux64) logging started Tue Jul 29 12:40:51 2014


Gurobi 5.6.3 (linux64) logging started Wed Jul 30 11:13:19 2014


Gurobi 5.6.3 (linux64) logging started Wed Jul 30 11:25:20 2014


Gurobi 5.6.3 (linux64) logging started Wed Jul 30 11:37:44 2014


Gurobi 5.6.3 (linux64) logging started Wed Jul 30 11:38:55 2014


Gurobi 5.6.3 (linux64) logging started Wed Jul 30 11:57:48 2014


Gurobi 5.6.3 (linux64) logging started Wed Jul 30 11:58:11 2014


Gurobi 5.6.3 (linux64) logging started Wed Jul 30 11:59:16 2014


Gurobi 5.6.3 (linux64) logging started Wed Jul 30 11:59:48 2014


Gurobi 5.6.3 (linux64) logging started Wed Jul 30 13:27:45 2014


Gurobi 5.6.3 (linux64) logging started Wed Jul 30 13:28:35 2014


Gurobi 5.6.3 (linux64) logging started Wed Jul 30 13:40:16 2014


Gurobi 5.6.3 (linux64) logging started Wed Jul 30 13:41:40 2014


Gurobi 5.6.3 (linux64) logging started Wed Jul 30 13:43:53 2014


Gurobi 5.6.3 (linux64) logging started Wed Jul 30 15:37:27 2014


Gurobi 5.6.3 (linux64) logging started Wed Jul 30 15:38:03 2014


Gurobi 5.6.3 (linux64) logging started Wed Jul 30 15:46:29 2014


Gurobi 5.6.3 (linux64) logging started Wed Jul 30 15:47:34 2014


Gurobi 5.6.3 (linux64) logging started Wed Jul 30 15:52:50 2014


Gurobi 5.6.3 (linux64) logging started Wed Jul 30 15:53:47 2014


Gurobi 5.6.3 (linux64) logging started Wed Jul 30 15:55:26 2014


Gurobi 5.6.3 (linux64) logging started Wed Jul 30 15:57:21 2014


Gurobi 5.6.3 (linux64) logging started Wed Jul 30 15:58:49 2014


Gurobi 5.6.3 (linux64) logging started Wed Jul 30 16:02:45 2014


Gurobi 5.6.3 (linux64) logging started Wed Jul 30 16:06:51 2014


Gurobi 5.6.3 (linux64) logging started Wed Jul 30 16:07:58 2014


Gurobi 5.6.3 (linux64) logging started Wed Jul 30 16:22:52 2014


Gurobi 5.6.3 (linux64) logging started Wed Jul 30 18:12:04 2014


Gurobi 5.6.3 (linux64) logging started Wed Jul 30 18:12:51 2014


Gurobi 5.6.3 (linux64) logging started Wed Jul 30 18:17:13 2014


Gurobi 5.6.3 (linux64) logging started Wed Jul 30 19:08:04 2014


Gurobi 5.6.3 (linux64) logging started Thu Jul 31 11:54:35 2014


Gurobi 5.6.3 (linux64) logging started Thu Jul 31 11:55:42 2014


Gurobi 5.6.3 (linux64) logging started Thu Jul 31 11:57:55 2014


Gurobi 5.6.3 (linux64) logging started Thu Jul 31 11:58:43 2014


Gurobi 5.6.3 (linux64) logging started Thu Jul 31 11:59:45 2014


Gurobi 5.6.3 (linux64) logging started Thu Jul 31 12:00:58 2014


Gurobi 5.6.3 (linux64) logging started Thu Jul 31 12:02:25 2014


Gurobi 5.6.3 (linux64) logging started Thu Jul 31 12:05:53 2014


Gurobi 5.6.3 (linux64) logging started Thu Jul 31 12:09:48 2014


Gurobi 5.6.3 (linux64) logging started Thu Jul 31 12:10:24 2014


Gurobi 5.6.3 (linux64) logging started Thu Jul 31 12:10:58 2014


Gurobi 5.6.3 (linux64) logging started Thu Jul 31 12:11:10 2014


Gurobi 5.6.3 (linux64) logging started Thu Jul 31 12:11:30 2014


Gurobi 5.6.3 (linux64) logging started Thu Jul 31 12:12:13 2014


Gurobi 5.6.3 (linux64) logging started Thu Jul 31 12:13:38 2014


Gurobi 5.6.3 (linux64) logging started Thu Jul 31 12:27:49 2014


Gurobi 5.6.3 (linux64) logging started Thu Jul 31 12:28:26 2014


Gurobi 5.6.3 (linux64) logging started Thu Jul 31 12:30:02 2014


Gurobi 5.6.3 (linux64) logging started Thu Jul 31 12:31:17 2014


Gurobi 5.6.3 (linux64) logging started Thu Jul 31 12:34:29 2014


Gurobi 5.6.3 (linux64) logging started Thu Jul 31 12:34:58 2014


Gurobi 5.6.3 (linux64) logging started Thu Jul 31 12:35:56 2014


Gurobi 5.6.3 (linux64) logging started Thu Jul 31 12:36:59 2014


Gurobi 5.6.3 (linux64) logging started Thu Jul 31 12:37:47 2014


Gurobi 5.6.3 (linux64) logging started Thu Jul 31 12:38:11 2014


Gurobi 5.6.3 (linux64) logging started Thu Jul 31 12:38:37 2014


Gurobi 5.6.3 (linux64) logging started Thu Jul 31 12:39:22 2014


Gurobi 5.6.3 (linux64) logging started Thu Jul 31 12:39:47 2014


Gurobi 5.6.3 (linux64) logging started Thu Jul 31 12:40:13 2014


Gurobi 5.6.3 (linux64) logging started Thu Jul 31 12:40:35 2014


Gurobi 5.6.3 (linux64) logging started Thu Jul 31 12:41:15 2014


Gurobi 5.6.3 (linux64) logging started Thu Jul 31 12:42:00 2014


Gurobi 5.6.3 (linux64) logging started Thu Jul 31 12:42:29 2014


Gurobi 5.6.3 (linux64) logging started Thu Jul 31 12:43:13 2014


Gurobi 5.6.3 (linux64) logging started Thu Jul 31 12:44:00 2014


Gurobi 5.6.3 (linux64) logging started Thu Jul 31 12:44:17 2014


Gurobi 5.6.3 (linux64) logging started Thu Jul 31 12:45:03 2014


Gurobi 5.6.3 (linux64) logging started Thu Jul 31 12:45:38 2014


Gurobi 5.6.3 (linux64) logging started Thu Jul 31 12:51:33 2014


Gurobi 5.6.3 (linux64) logging started Thu Jul 31 12:54:19 2014


Gurobi 5.6.3 (linux64) logging started Thu Jul 31 12:56:52 2014


Gurobi 5.6.3 (linux64) logging started Thu Jul 31 12:58:51 2014


Gurobi 5.6.3 (linux64) logging started Thu Jul 31 13:02:09 2014


Gurobi 5.6.3 (linux64) logging started Thu Jul 31 13:11:22 2014


Gurobi 5.6.3 (linux64) logging started Thu Jul 31 13:14:04 2014


Gurobi 5.6.3 (linux64) logging started Thu Jul 31 13:37:37 2014


Gurobi 5.6.3 (linux64) logging started Thu Jul 31 13:39:00 2014


Gurobi 5.6.3 (linux64) logging started Thu Jul 31 13:39:13 2014


Gurobi 5.6.3 (linux64) logging started Thu Jul 31 13:39:31 2014


Gurobi 5.6.3 (linux64) logging started Thu Jul 31 13:41:02 2014


Gurobi 5.6.3 (linux64) logging started Thu Jul 31 13:41:23 2014


Gurobi 5.6.3 (linux64) logging started Thu Jul 31 13:41:40 2014


Gurobi 5.6.3 (linux64) logging started Thu Jul 31 13:41:49 2014


Gurobi 5.6.3 (linux64) logging started Thu Jul 31 13:42:05 2014


Gurobi 5.6.3 (linux64) logging started Thu Jul 31 13:42:45 2014


Gurobi 5.6.3 (linux64) logging started Thu Jul 31 13:42:49 2014


Gurobi 5.6.3 (linux64) logging started Thu Jul 31 14:22:50 2014


Gurobi 5.6.3 (linux64) logging started Thu Jul 31 14:23:07 2014


Gurobi 5.6.3 (linux64) logging started Thu Jul 31 14:23:30 2014


Gurobi 5.6.3 (linux64) logging started Thu Jul 31 14:23:44 2014


Gurobi 5.6.3 (linux64) logging started Thu Jul 31 14:23:52 2014


Gurobi 5.6.3 (linux64) logging started Thu Jul 31 14:24:04 2014


Gurobi 5.6.3 (linux64) logging started Thu Jul 31 14:24:18 2014


Gurobi 5.6.3 (linux64) logging started Thu Jul 31 14:24:33 2014


Gurobi 5.6.3 (linux64) logging started Thu Jul 31 14:24:44 2014


Gurobi 5.6.3 (linux64) logging started Thu Jul 31 14:24:58 2014


Gurobi 5.6.3 (linux64) logging started Thu Jul 31 14:46:47 2014


Gurobi 5.6.3 (linux64) logging started Thu Jul 31 14:47:25 2014


Gurobi 5.6.3 (linux64) logging started Thu Jul 31 14:47:31 2014


Gurobi 5.6.3 (linux64) logging started Thu Jul 31 14:47:55 2014


Gurobi 5.6.3 (linux64) logging started Thu Jul 31 14:48:00 2014


Gurobi 5.6.3 (linux64) logging started Thu Jul 31 14:48:11 2014


Gurobi 5.6.3 (linux64) logging started Thu Jul 31 15:38:18 2014


Gurobi 5.6.3 (linux64) logging started Thu Jul 31 15:40:58 2014


Gurobi 5.6.3 (linux64) logging started Thu Jul 31 15:45:46 2014


Gurobi 5.6.3 (linux64) logging started Thu Jul 31 15:48:59 2014


Gurobi 5.6.3 (linux64) logging started Thu Jul 31 15:54:08 2014


Gurobi 5.6.3 (linux64) logging started Thu Jul 31 15:54:36 2014


Gurobi 5.6.3 (linux64) logging started Thu Jul 31 15:54:58 2014


Gurobi 5.6.3 (linux64) logging started Thu Jul 31 15:55:22 2014


Gurobi 5.6.3 (linux64) logging started Thu Jul 31 15:55:38 2014


Gurobi 5.6.3 (linux64) logging started Thu Jul 31 15:56:27 2014


Gurobi 5.6.3 (linux64) logging started Thu Jul 31 15:56:48 2014


Gurobi 5.6.3 (linux64) logging started Thu Jul 31 15:58:27 2014


Gurobi 5.6.3 (linux64) logging started Thu Jul 31 15:58:52 2014


Gurobi 5.6.3 (linux64) logging started Thu Jul 31 15:59:51 2014


Gurobi 5.6.3 (linux64) logging started Thu Jul 31 16:02:08 2014


Gurobi 5.6.3 (linux64) logging started Thu Jul 31 16:37:51 2014


Gurobi 5.6.3 (linux64) logging started Thu Jul 31 16:38:15 2014


Gurobi 5.6.3 (linux64) logging started Thu Jul 31 16:41:42 2014


Gurobi 5.6.3 (linux64) logging started Thu Jul 31 16:42:24 2014


Gurobi 5.6.3 (linux64) logging started Thu Jul 31 16:42:59 2014


Gurobi 5.6.3 (linux64) logging started Thu Jul 31 16:45:45 2014


Gurobi 5.6.3 (linux64) logging started Thu Jul 31 16:49:20 2014


Gurobi 5.6.3 (linux64) logging started Thu Jul 31 16:50:50 2014


Gurobi 5.6.3 (linux64) logging started Thu Jul 31 16:57:13 2014


Gurobi 5.6.3 (linux64) logging started Thu Jul 31 18:08:47 2014


Gurobi 5.6.3 (linux64) logging started Thu Jul 31 18:15:42 2014


Gurobi 5.6.3 (linux64) logging started Thu Jul 31 20:14:56 2014


Gurobi 5.6.3 (linux64) logging started Thu Jul 31 20:15:26 2014


Gurobi 5.6.3 (linux64) logging started Thu Jul 31 20:16:28 2014


Gurobi 5.6.3 (linux64) logging started Thu Jul 31 20:19:54 2014


Gurobi 5.6.3 (linux64) logging started Thu Jul 31 20:24:33 2014


Gurobi 5.6.3 (linux64) logging started Thu Jul 31 20:29:35 2014


Gurobi 5.6.3 (linux64) logging started Thu Jul 31 20:32:31 2014


Gurobi 5.6.3 (linux64) logging started Thu Jul 31 20:35:32 2014


Gurobi 5.6.3 (linux64) logging started Thu Jul 31 20:38:19 2014


Gurobi 5.6.3 (linux64) logging started Fri Aug  1 11:13:06 2014


Gurobi 5.6.3 (linux64) logging started Fri Aug  1 11:14:09 2014


Gurobi 5.6.3 (linux64) logging started Fri Aug  1 11:16:43 2014


Gurobi 5.6.3 (linux64) logging started Fri Aug  1 11:22:01 2014


Gurobi 5.6.3 (linux64) logging started Fri Aug  1 11:24:28 2014


Gurobi 5.6.3 (linux64) logging started Fri Aug  1 11:29:30 2014


Gurobi 5.6.3 (linux64) logging started Fri Aug  1 11:36:48 2014


Gurobi 5.6.3 (linux64) logging started Fri Aug  1 11:49:51 2014


Gurobi 5.6.3 (linux64) logging started Fri Aug  1 11:50:14 2014


Gurobi 5.6.3 (linux64) logging started Fri Aug  1 11:51:50 2014


Gurobi 5.6.3 (linux64) logging started Fri Aug  1 11:52:24 2014


Gurobi 5.6.3 (linux64) logging started Fri Aug  1 11:52:53 2014


Gurobi 5.6.3 (linux64) logging started Fri Aug  1 11:54:56 2014


Gurobi 5.6.3 (linux64) logging started Fri Aug  1 11:55:23 2014


Gurobi 5.6.3 (linux64) logging started Fri Aug  1 12:01:47 2014


Gurobi 5.6.3 (linux64) logging started Fri Aug  1 12:03:47 2014


Gurobi 5.6.3 (linux64) logging started Fri Aug  1 12:11:48 2014


Gurobi 5.6.3 (linux64) logging started Fri Aug  1 12:13:38 2014


Gurobi 5.6.3 (linux64) logging started Fri Aug  1 15:48:48 2014

